NAME: random-69-9337
TYPE: TSP
COMMENT: size=69 seed=9337
DIMENSION: 140
EDGE_WEIGHT_TYPE: EUC_2D
NODE_COORD_SECTION
+0 959 397
-0 959 397
+1 232 196
-1 295 200
+2 777 564
-2 20 302
+3 378 820
-3 766 96
+4 97 736
-4 467 516
+5 105 389
-5 80 420
+6 420 828
-6 237 751
+7 44 986
-7 836 310
+8 394 358
-8 786 913
+9 741 99
-9 432 760
+10 897 886
-10 132 234
+11 744 399
-11 477 447
+12 116 431
-12 405 941
+13 256 926
-13 78 692
+14 114 545
-14 227 756
+15 752 72
-15 473 322
+16 773 497
-16 101 487
+17 533 285
-17 701 455
+18 206 177
-18 443 926
+19 336 483
-19 55 876
+20 92 688
-20 217 921
+21 647 649
-21 907 17
+22 830 914
-22 837 31
+23 966 810
-23 631 736
+24 283 90
-24 48 462
+25 485 193
-25 920 781
+26 724 607
-26 325 513
+27 548 510
-27 993 905
+28 899 523
-28 397 712
+29 177 521
-29 785 445
+30 317 448
-30 62 100
+31 365 547
-31 302 330
+32 239 486
-32 647 69
+33 893 557
-33 985 537
+34 313 25
-34 273 572
+35 507 807
-35 482 408
+36 485 278
-36 52 545
+37 857 55
-37 760 495
+38 143 848
-38 938 26
+39 992 360
-39 797 256
+40 293 666
-40 136 131
+41 398 232
-41 786 506
+42 980 301
-42 234 735
+43 911 148
-43 467 913
+44 136 716
-44 87 742
+45 584 848
-45 873 390
+46 891 922
-46 937 803
+47 206 601
-47 728 788
+48 260 804
-48 746 153
+49 500 878
-49 829 324
+50 77 683
-50 914 35
+51 848 108
-51 968 580
+52 98 134
-52 913 291
+53 149 759
-53 42 500
+54 324 437
-54 982 459
+55 911 569
-55 393 136
+56 812 388
-56 140 451
+57 11 411
-57 516 150
+58 212 155
-58 447 554
+59 395 947
-59 332 318
+60 350 400
-60 980 965
+61 908 996
-61 596 598
+62 671 709
-62 193 830
+63 956 212
-63 327 813
+64 727 309
-64 295 295
+65 710 336
-65 379 999
+66 22 85
-66 786 149
+67 237 55
-67 999 916
+68 320 361
-68 154 345
+69 685 502
-69 582 352
PRECEDENCE_SECTION
+0 -0
+1 -1
+2 -2
+3 -3
+4 -4
+5 -5
+6 -6
+7 -7
+8 -8
+9 -9
+10 -10
+11 -11
+12 -12
+13 -13
+14 -14
+15 -15
+16 -16
+17 -17
+18 -18
+19 -19
+20 -20
+21 -21
+22 -22
+23 -23
+24 -24
+25 -25
+26 -26
+27 -27
+28 -28
+29 -29
+30 -30
+31 -31
+32 -32
+33 -33
+34 -34
+35 -35
+36 -36
+37 -37
+38 -38
+39 -39
+40 -40
+41 -41
+42 -42
+43 -43
+44 -44
+45 -45
+46 -46
+47 -47
+48 -48
+49 -49
+50 -50
+51 -51
+52 -52
+53 -53
+54 -54
+55 -55
+56 -56
+57 -57
+58 -58
+59 -59
+60 -60
+61 -61
+62 -62
+63 -63
+64 -64
+65 -65
+66 -66
+67 -67
+68 -68
+69 -69
EOF
